problems/csplib-prob030/BalancedAcademicCurriculumProblem-models/noch/O0/minion/model-bacp-17-solution000001.eprime-solution
language ESSENCE' 1.0

letting curr_Function1D be
        [10, 3, 3, 1, 2, 9, 9, 1, 1, 2, 9, 1, 1, 8, 7, 7, 7, 6, 6, 6, 6, 6, 1, 6, 6, 6, 5, 5, 5, 4, 4, 4, 3, 3, 3, 3, 3,
         3, 3, 3, 8, 2, 2, 2, 2, 2, 1, 10, 1, 1;
             int(1..50)]
