problems/csplib-prob030/BalancedAcademicCurriculumProblem-models/noch/O2/minion/model-bacp-17-solution000001.solution
language Essence 1.3

letting curr be
        function(1 --> 10, 2 --> 3, 3 --> 3, 4 --> 1, 5 --> 2, 6 --> 9, 7 --> 9, 8 --> 1, 9 --> 1, 10 --> 2, 11 --> 9,
                 12 --> 1, 13 --> 1, 14 --> 8, 15 --> 7, 16 --> 7, 17 --> 7, 18 --> 6, 19 --> 6, 20 --> 6, 21 --> 6,
                 22 --> 6, 23 --> 1, 24 --> 6, 25 --> 6, 26 --> 6, 27 --> 5, 28 --> 5, 29 --> 5, 30 --> 4, 31 --> 4,
                 32 --> 4, 33 --> 3, 34 --> 3, 35 --> 3, 36 --> 3, 37 --> 3, 38 --> 3, 39 --> 3, 40 --> 3, 41 --> 8,
                 42 --> 2, 43 --> 2, 44 --> 2, 45 --> 2, 46 --> 2, 47 --> 1, 48 --> 10, 49 --> 1, 50 --> 1)
